data/processed_heuristic-threshold/instances/2/8/ds_711_courier_435/pairwise.tsp
NAME: ds_711_courier_435
TYPE: TSP
COMMENT: nil
DIMENSION: 10
EDGE_WEIGHT_TYPE: EXPLICIT
EDGE_WEIGHT_FORMAT: FULL_MATRIX
EDGE_WEIGHT_SECTION
9999 1019 1119 1047 346 1744 848 931 1338 1209 
1019 9999 165 399 736 1751 1433 449 1471 190 
1119 165 9999 296 809 1653 1438 388 1401 171 
1047 399 296 9999 705 1359 1198 134 1107 466 
346 736 809 705 9999 1516 803 586 1129 923 
1744 1751 1653 1359 1516 9999 1055 1306 412 1820 
848 1433 1438 1198 803 1055 9999 1070 660 1593 
931 449 388 134 586 1306 1070 9999 1023 557 
1338 1471 1401 1107 1129 412 660 1023 9999 1572 
1209 190 171 466 923 1820 1593 557 1572 9999 
