data/processed_heuristic-threshold/instances/2/8/ds_711_courier_435/pairwise.sol
10
0 6 8 5 7 3 2 9 1 4 
